solution status: gap limit reached
objective value:                          45605.27714
y#6                                                 1 	(obj:5700)
y#16                                                1 	(obj:5700)
y#30                                                1 	(obj:5700)
y#31                                                1 	(obj:5700)
y#35                                                1 	(obj:5700)
y#36                                                1 	(obj:5700)
y#39                                                1 	(obj:5700)
y#40                                                1 	(obj:5700)
x#1#39                                              1 	(obj:0.01853)
x#2#35                                              1 	(obj:0.01802)
x#3#40                                              1 	(obj:0.03961)
x#4#16                                              1 	(obj:0.18071)
x#5#36                                              1 	(obj:0.04811)
x#6#31                                              1 	(obj:0.03179)
x#7#31                                              1 	(obj:0.04471)
x#8#40                                              1 	(obj:0.03995)
x#9#31                                              1 	(obj:0.03808)
x#10#31                                             1 	(obj:0.0578)
x#11#40                                             1 	(obj:0.07089)
x#12#36                                             1 	(obj:0.03689)
x#13#40                                             1 	(obj:0.01343)
x#14#6                                              1 	(obj:0.03349)
x#15#39                                             1 	(obj:0.0187)
x#16#35                                             1 	(obj:0.03706)
x#17#36                                             1 	(obj:0.04556)
x#18#16                                             1 	(obj:0.1632)
x#19#6                                              1 	(obj:0.04165)
x#20#6                                              1 	(obj:0.00935)
x#21#35                                             1 	(obj:0.10132)
x#22#35                                             1 	(obj:0.04488)
x#23#36                                             1 	(obj:0.01513)
x#24#40                                             1 	(obj:0.03179)
x#25#35                                             1 	(obj:0.0697)
x#26#30                                             1 	(obj:0.10897)
x#27#39                                             1 	(obj:0.07327)
x#28#31                                             1 	(obj:0.04233)
x#29#39                                             1 	(obj:0.02431)
x#30#16                                             1 	(obj:0.15487)
x#31#6                                              1 	(obj:0.01139)
x#32#39                                             1 	(obj:0.01853)
x#33#40                                             1 	(obj:0.02074)
x#34#30                                             1 	(obj:0.05967)
x#35#35                                             1 	(obj:0.04029)
x#36#39                                             1 	(obj:0.01241)
x#37#40                                             1 	(obj:0.00935)
x#38#35                                             1 	(obj:0.11696)
x#39#6                                              1 	(obj:0.05151)
x#40#16                                             1 	(obj:0.08517)
x#41#16                                             1 	(obj:0.10149)
x#42#36                                             1 	(obj:0.01938)
x#43#30                                             1 	(obj:0.15929)
x#44#30                                             1 	(obj:0.05746)
x#45#39                                             1 	(obj:0.0187)
x#46#30                                             1 	(obj:0.13498)
x#47#31                                             1 	(obj:0.05746)
x#48#39                                             1 	(obj:0.03247)
x#49#35                                             1 	(obj:0.03196)
x#50#6                                              1 	(obj:0.01479)
x#51#31                                             1 	(obj:0.03995)
x#52#30                                             1 	(obj:0.09877)
x#53#39                                             1 	(obj:0.03944)
x#54#6                                              1 	(obj:0.02023)
x#55#39                                             1 	(obj:0.02652)
x#56#16                                             1 	(obj:0.06528)
x#57#16                                             1 	(obj:0.17102)
x#58#36                                             1 	(obj:0.04148)
x#59#16                                             1 	(obj:0.18122)
x#60#6                                              1 	(obj:0.07276)
x#61#30                                             1 	(obj:0.12393)
x#62#31                                             1 	(obj:0.02227)
x#63#39                                             1 	(obj:0.01632)
x#64#36                                             1 	(obj:0.0646)
x#65#16                                             1 	(obj:0.13566)
x#66#30                                             1 	(obj:0.13175)
x#67#36                                             1 	(obj:0.02329)
x#68#6                                              1 	(obj:0.03553)
x#69#30                                             1 	(obj:0.13209)
x#70#36                                             1 	(obj:0.00952)
x#71#40                                             1 	(obj:0.03757)
x#72#16                                             1 	(obj:0.07191)
x#73#30                                             1 	(obj:0.08942)
x#74#35                                             1 	(obj:0.08687)
x#75#36                                             1 	(obj:0.08109)
x#76#30                                             1 	(obj:0.15113)
x#77#35                                             1 	(obj:0.04964)
x#78#35                                             1 	(obj:0.05338)
x#79#36                                             1 	(obj:0.0425)
x#80#31                                             1 	(obj:0.09741)
x#81#35                                             1 	(obj:0.04811)
x#82#6                                              1 	(obj:0.04233)
x#83#31                                             1 	(obj:0.02516)
x#84#40                                             1 	(obj:0.03553)
x#85#40                                             1 	(obj:0.03842)
x#86#40                                             1 	(obj:0.04947)
x#87#36                                             1 	(obj:0.03111)
x#88#31                                             1 	(obj:0.0459)
x#89#39                                             1 	(obj:0.00816)
x#90#6                                              1 	(obj:0.0323)
